c WARNING: for repeatability, setting FPU to use double precision
d VARIABLES            27129        
d CONSTRAINTS          95793        
c ============================[ Problem Statistics ]=============================
c |                                                                             |
c |  Number of variables:         27129                                         |
c |  Number of clauses:           95793                                         |
c |  Parse time:                   0.01 s                                       |
c |                                                                             |
c ============================[ Search Statistics ]==============================
c | Conflicts |          ORIGINAL         |          LEARNT          | Progress |
c |           |    Vars  Clauses Literals |    Limit  Clauses Lit/Cl |          |
c ===============================================================================
c |       100 |   16419    66957   165346 |    24550      100    123 | 39.478 % |
c |       250 |   16419    66957   165346 |    27005      250     95 | 39.478 % |
c |       475 |   16419    66957   165346 |    29706      475     84 | 39.478 % |
c |       812 |   16419    66957   165346 |    32677      812     86 | 39.478 % |
c |      1318 |   16419    66957   165346 |    35944     1318    103 | 39.478 % |
c |      2077 |   16419    66957   165346 |    39539     2077    100 | 39.478 % |
c |      3216 |   16419    66957   165346 |    43493     3216    106 | 39.478 % |
c |      4924 |   16419    66957   165346 |    47842     4924    119 | 39.478 % |
c |      7486 |   16419    66957   165346 |    52627     7486    131 | 39.478 % |
c |     11330 |   16419    66957   165346 |    57889    11330    136 | 39.478 % |
c |     17096 |   16419    66957   165346 |    63678    17096    130 | 39.478 % |
c |     25745 |   16419    66957   165346 |    70046    25745    130 | 39.478 % |
c |     38719 |   16419    66957   165346 |    77051    38719    122 | 39.478 % |
c ===============================================================================
c restarts              : 127
c conflicts             : 40222          (2814 /sec)
c decisions             : 86734          (0.00 % random) (6068 /sec)
c propagations          : 53096228       (3714869 /sec)
c conflict literals     : 4865716        (49.16 % deleted)
d RESTARTS             127
d FAILURES             40222        
d NODES                86734        
d BACKTRACKS           86734        
d PROPAGATIONS         53096228     
d NOGOODSIZE           120.97 
d MEMORY               44.00 
d TIME                 14.2929 

s UNSATISFIABLE
